Resources = {R1, R2, R3, R4, R5, R6, R7, R8, R9, R10};

Activities = {T, S, W, o, b};

slots = 40;

fixed =
[| R1: None, None, None, <>, <>, <>, A(o), <>, <>, <>, <>, <>, <>, <>, <>, A(b), A(b), A(o), A(o), <>, <>, <>, <>, <>, None, None, None, None, None, None, None, None, None, None, None, None, None, None, None, None
| R2: None, None, None, None, None, None, None, None, None, None, None, None, None, None, A(o), A(o), A(o), A(o), A(o), A(o), A(o), A(o), A(o), A(o), A(o), <>, A(b), A(b), A(b), A(b), A(o), A(o), A(o), A(o), A(o), A(o), A(o), None, None, None
| R3: <>, <>, <>, <>, <>, <>, A(o), <>, A(b), <>, <>, <>, <>, <>, <>, <>, A(b), A(b), <>, <>, <>, <>, <>, <>, <>, <>, <>, <>, <>, <>, <>, <>, None, None, None, None, None, None, None, None
| R4: None, None, None, None, None, None, A(o), <>, <>, <>, <>, <>, <>, <>, <>, <>, <>, <>, <>, <>, <>, <>, A(b), A(b), A(b), <>, <>, <>, <>, <>, <>, <>, None, None, None, None, None, None, None, None
| R5: None, None, A(o), A(o), A(o), A(o), A(o), <>, <>, <>, <>, <>, <>, <>, <>, <>, <>, <>, A(b), A(b), A(b), A(b), <>, <>, <>, <>, <>, None, None, None, None, None, None, None, None, None, None, None, None, None
| R6: None, None, A(o), A(o), A(o), A(o), A(o), <>, <>, <>, <>, <>, <>, <>, A(b), A(b), A(b), A(o), A(o), A(o), A(o), A(o), None, None, None, None, None, None, None, None, None, None, None, None, None, None, None, None, None, None
| R7: None, None, None, None, None, None, None, None, None, None, None, <>, <>, <>, <>, <>, <>, <>, <>, <>, <>, <>, <>, <>, <>, <>, <>, A(b), A(b), A(b), A(o), A(o), A(o), A(o), A(o), <>, <>, <>, <>, None
| R8: None, None, None, None, None, None, None, <>, <>, <>, <>, <>, <>, <>, <>, <>, <>, <>, <>, <>, <>, <>, <>, A(b), A(b), A(o), A(o), A(o), <>, <>, <>, <>, <>, <>, <>, <>, None, None, None, None
| R9: None, None, None, None, <>, <>, A(o), <>, <>, <>, <>, <>, A(b), <>, <>, <>, <>, <>, <>, <>, A(b), A(b), A(b), A(b), <>, <>, <>, <>, <>, <>, <>, <>, <>, <>, <>, <>, <>, <>, <>, None
| R10: None, <>, <>, <>, <>, <>, A(o), <>, <>, A(b), <>, <>, <>, <>, <>, <>, <>, A(b), A(b), A(o), A(o), A(o), A(o), A(o), A(o), A(o), A(o), A(o), A(o), <>, <>, <>, <>, <>, <>, <>, <>, None, None, None
|];

requirements =
[| T: 0, 0, 0, 0, 0, 0, 0, 4, 3, 4, 4, 4, 3, 3, 3, 2, 1, 1, 2, 3, 3, 3, 2, 2, 1, 3, 2, 2, 2, 2, 2, 2, 1, 1, 1, 1, 1, 1, 1, 0
| S: 0, 0, 0, 0, 0, 0, 0, 2, 2, 2, 2, 3, 4, 4, 3, 2, 2, 2, 1, 1, 1, 1, 2, 2, 2, 2, 2, 1, 1, 1, 1, 1, 1, 1, 1, 1, 1, 1, 1, 0
| W: 1, 2, 2, 3, 4, 4, 0, 2, 2, 1, 2, 2, 1, 2, 2, 3, 3, 2, 2, 2, 1, 1, 1, 0, 1, 1, 1, 0, 1, 2, 2, 2, 1, 1, 1, 2, 1, 0, 0, 0
| o: 0, 0, 2, 2, 2, 2, 7, 0, 0, 0, 0, 0, 0, 0, 1, 1, 1, 3, 3, 3, 3, 3, 2, 2, 2, 2, 2, 2, 1, 0, 2, 2, 2, 2, 2, 1, 1, 0, 0, 0
| b: 0, 0, 0, 0, 0, 0, 0, 0, 1, 1, 0, 0, 1, 0, 1, 2, 3, 2, 2, 1, 2, 2, 2, 3, 2, 0, 1, 2, 2, 2, 0, 0, 0, 0, 0, 0, 0, 0, 0, 0
|];

activity_run_cost = array2d(Activities, SlotsAndZero,
[| T: 0, 200, 100, 2, 0, 0, 0, 100, 200, 300, 400, 500, 600, 700, 800, 900, 1000, 1100, 1200, 1300, 1400, 1400, 1400, 1400, 1400, 1400, 1400, 1400, 1400, 1400, 1400, 1400, 1400, 1400, 1400, 1400, 1400, 1400, 1400, 1400, 1400
| S: 0, 2, 0, 0, 0, 0, 0, 0, 0, 0, 3, 6, 9, 12, 15, 18, 21, 24, 27, 30, 33, 33, 33, 33, 33, 33, 33, 33, 33, 33, 33, 33, 33, 33, 33, 33, 33, 33, 33, 33, 33
| W: 0, 20, 15, 10, 5, 0, 0, 0, 0, 0, 0, 0, 0, 0, 0, 0, 0, 0, 0, 0, 0, 0, 0, 0, 0, 0, 0, 0, 0, 0, 0, 0, 0, 0, 0, 0, 0, 0, 0, 0, 0
| o: 0, 0, 0, 0, 0, 0, 0, 0, 0, 0, 0, 0, 0, 0, 0, 0, 0, 0, 0, 0, 0, 0, 0, 0, 0, 0, 0, 0, 0, 0, 0, 0, 0, 0, 0, 0, 0, 0, 0, 0, 0
| b: 0, 0, 0, 0, 0, 0, 0, 0, 0, 0, 0, 0, 0, 0, 0, 0, 0, 0, 0, 0, 0, 0, 0, 0, 0, 0, 0, 0, 0, 0, 0, 0, 0, 0, 0, 0, 0, 0, 0, 0, 0
|]);

activity_frequency_cost = array2d(Activities, SlotsAndZero,
[| T: 0, 67, 0, 0, 0, 6, 8, 10, 12, 14, 16, 18, 20, 22, 24, 26, 28, 30, 32, 34, 36, 36, 36, 36, 36, 36, 36, 36, 36, 36, 36, 36, 36, 36, 36, 36, 36, 36, 36, 36, 36
| S: 0, 0, 0, 0, 0, 0, 0, 0, 0, 0, 0, 0, 0, 0, 0, 0, 0, 0, 0, 0, 0, 0, 0, 0, 0, 0, 0, 0, 0, 0, 0, 0, 0, 0, 0, 0, 0, 0, 0, 0, 0
| W: 0, 3, 6, 9, 12, 15, 18, 21, 24, 27, 30, 33, 36, 39, 42, 45, 48, 51, 54, 57, 57, 57, 57, 57, 57, 57, 57, 57, 57, 57, 57, 57, 57, 57, 57, 57, 57, 57, 57, 57, 57
| o: 0, 0, 0, 0, 0, 0, 0, 0, 0, 0, 0, 0, 0, 0, 0, 0, 0, 0, 0, 0, 0, 0, 0, 0, 0, 0, 0, 0, 0, 0, 0, 0, 0, 0, 0, 0, 0, 0, 0, 0, 0
| b: 0, 0, 0, 0, 0, 0, 0, 0, 0, 0, 0, 0, 0, 0, 0, 0, 0, 0, 0, 0, 0, 0, 0, 0, 0, 0, 0, 0, 0, 0, 0, 0, 0, 0, 0, 0, 0, 0, 0, 0, 0
|]);

